DIMENSION: 26
EDGE_WEIGHT_TYPE: EXPLICIT
EDGE_WEIGHT_FORMAT: FULL_MATRIX
EDGE_WEIGHT_SECTION:
32767 32767 79 32767 32767 32767 89 75 32767 38 32767 32767 32767 32767 70 32767 32767 4 50 32767 32767 32767 32767 11 6 76 
32767 32767 32767 32767 32767 32767 72 8 22 32767 32767 32767 32767 35 32767 38 32767 32767 32767 20 32767 82 38 32767 32767 32767 
79 32767 32767 32767 32767 32767 32767 32767 32767 85 35 6 32767 93 32767 32767 32767 32767 32767 46 41 57 66 32767 32767 32767 
32767 32767 32767 32767 32767 82 51 45 86 35 32767 32767 32767 32767 32767 69 67 43 32767 20 32767 85 32767 56 32767 32767 
32767 32767 32767 32767 32767 32767 94 28 32767 58 41 32 32767 32767 45 32767 32767 32767 7 62 94 32767 32767 32767 11 32767 
32767 32767 32767 82 32767 32767 94 32767 74 32767 83 32767 32767 76 21 32767 32767 32767 32767 32767 46 32767 32767 42 95 32767 
89 72 32767 51 94 94 32767 32767 32767 32767 32767 32767 78 32767 32767 32767 32767 32767 28 49 30 68 32767 32767 32767 32767 
75 8 32767 45 28 32767 32767 32767 32767 19 76 32767 5 11 32767 32767 5 32767 85 32767 32767 32767 32767 32767 40 77 
32767 22 32767 86 32767 74 32767 32767 32767 32767 39 32767 32767 90 98 32767 32767 69 32767 96 32767 100 91 59 32767 50 
38 32767 85 35 58 32767 32767 19 32767 32767 32767 32767 32767 32767 32767 40 34 32767 32767 32767 32767 32767 63 60 32767 56 
32767 32767 35 32767 41 83 32767 76 39 32767 32767 20 69 43 89 28 32767 32767 10 32767 32767 32767 32767 32767 32767 23 
32767 32767 6 32767 32 32767 32767 32767 32767 32767 20 32767 65 32767 88 32767 32767 32767 32767 32767 35 57 32767 97 9 74 
32767 32767 32767 32767 32767 32767 78 5 32767 32767 69 65 32767 71 32767 32767 32767 32767 32767 75 32767 32767 78 32767 50 2 
32767 35 93 32767 32767 76 32767 11 90 32767 43 32767 71 32767 64 64 5 32767 1 32767 62 32767 84 32767 7 23 
70 32767 32767 32767 45 21 32767 32767 98 32767 89 88 32767 64 32767 59 32767 32767 32767 79 18 33 32767 81 32767 85 
32767 38 32767 69 32767 32767 32767 32767 32767 40 28 32767 32767 64 59 32767 42 69 32767 32767 32767 32767 56 32767 41 32767 
32767 32767 32767 67 32767 32767 32767 5 32767 34 32767 32767 32767 5 32767 42 32767 51 32767 32767 32767 5 32767 32767 32767 32767 
4 32767 32767 43 32767 32767 32767 32767 69 32767 32767 32767 32767 32767 32767 69 51 32767 32767 32767 32767 86 32767 79 32767 79 
50 32767 32767 32767 7 32767 28 85 32767 32767 10 32767 32767 1 32767 32767 32767 32767 32767 5 32767 60 32767 52 3 32767 
32767 20 46 20 62 32767 49 32767 96 32767 32767 32767 75 32767 79 32767 32767 32767 5 32767 29 32767 34 32767 32767 32767 
32767 32767 41 32767 94 46 30 32767 32767 32767 32767 35 32767 62 18 32767 32767 32767 32767 29 32767 37 47 32 32767 32767 
32767 82 57 85 32767 32767 68 32767 100 32767 32767 57 32767 32767 33 32767 5 86 60 32767 37 32767 96 32767 63 8 
32767 38 66 32767 32767 32767 32767 32767 91 63 32767 32767 78 84 32767 56 32767 32767 32767 34 47 96 32767 9 32767 32767 
11 32767 32767 56 32767 42 32767 32767 59 60 32767 97 32767 32767 81 32767 32767 79 52 32767 32 32767 9 32767 32767 32767 
6 32767 32767 32767 11 95 32767 40 32767 32767 32767 9 50 7 32767 41 32767 32767 3 32767 32767 63 32767 32767 32767 32767 
76 32767 32767 32767 32767 32767 32767 77 50 56 23 74 2 23 85 32767 32767 79 32767 32767 32767 8 32767 32767 32767 32767 
EOF